c File: instances/38_0.40_2.col
c
c Description: Random graph of size 38 vertices and P(0.39999999999999997) of edges between any two vertices.
p col 38 703
e 1 5
e 1 7
e 1 14
e 1 16
e 1 17
e 1 18
e 1 24
e 1 26
e 1 28
e 1 30
e 1 31
e 1 32
e 1 33
e 1 34
e 1 35
e 1 37
e 2 4
e 2 5
e 2 6
e 2 9
e 2 10
e 2 13
e 2 16
e 2 18
e 2 19
e 2 20
e 2 21
e 2 22
e 2 23
e 2 30
e 2 31
e 2 34
e 3 6
e 3 7
e 3 11
e 3 15
e 3 18
e 3 20
e 3 21
e 3 23
e 3 24
e 3 26
e 3 27
e 3 29
e 3 30
e 3 32
e 3 33
e 3 35
e 3 36
e 3 38
e 4 5
e 4 6
e 4 7
e 4 9
e 4 13
e 4 14
e 4 15
e 4 17
e 4 19
e 4 21
e 4 22
e 4 25
e 4 26
e 4 29
e 4 31
e 4 35
e 4 36
e 5 7
e 5 8
e 5 9
e 5 14
e 5 20
e 5 21
e 5 23
e 5 24
e 5 26
e 5 31
e 5 33
e 5 34
e 5 37
e 6 8
e 6 9
e 6 10
e 6 11
e 6 17
e 6 19
e 6 23
e 6 24
e 6 27
e 6 29
e 6 30
e 6 31
e 6 33
e 6 37
e 6 38
e 7 9
e 7 10
e 7 11
e 7 14
e 7 16
e 7 18
e 7 21
e 7 22
e 7 23
e 7 24
e 7 28
e 7 32
e 7 37
e 7 38
e 8 14
e 8 17
e 8 18
e 8 21
e 8 22
e 8 24
e 8 25
e 8 29
e 8 33
e 8 36
e 8 37
e 9 11
e 9 12
e 9 13
e 9 16
e 9 21
e 9 25
e 9 29
e 9 30
e 9 33
e 9 35
e 9 36
e 9 37
e 10 12
e 10 13
e 10 19
e 10 23
e 10 26
e 10 32
e 10 34
e 10 35
e 10 38
e 11 14
e 11 15
e 11 17
e 11 21
e 11 22
e 11 28
e 11 30
e 11 31
e 11 32
e 12 14
e 12 15
e 12 17
e 12 20
e 12 21
e 12 22
e 12 23
e 12 25
e 12 29
e 12 32
e 12 34
e 12 37
e 13 14
e 13 16
e 13 17
e 13 18
e 13 21
e 13 24
e 13 25
e 13 29
e 13 34
e 13 35
e 13 38
e 14 15
e 14 16
e 14 18
e 14 20
e 14 21
e 14 22
e 14 24
e 14 25
e 14 29
e 14 30
e 14 32
e 14 33
e 14 34
e 14 35
e 14 37
e 15 16
e 15 17
e 15 20
e 15 22
e 15 23
e 15 26
e 15 27
e 15 29
e 15 30
e 15 31
e 15 33
e 15 34
e 15 35
e 15 36
e 16 17
e 16 18
e 16 20
e 16 22
e 16 26
e 16 31
e 16 34
e 16 37
e 16 38
e 17 18
e 17 20
e 17 22
e 17 24
e 17 27
e 17 30
e 18 19
e 18 23
e 18 27
e 18 29
e 18 30
e 18 35
e 18 38
e 19 21
e 19 27
e 19 31
e 19 32
e 19 35
e 19 38
e 20 22
e 20 23
e 20 30
e 20 36
e 20 38
e 21 22
e 21 25
e 21 26
e 21 27
e 21 31
e 21 32
e 21 34
e 22 23
e 22 24
e 22 25
e 22 27
e 22 28
e 22 31
e 23 25
e 23 28
e 23 31
e 23 34
e 23 36
e 23 37
e 24 26
e 24 27
e 24 28
e 24 34
e 24 35
e 25 29
e 25 30
e 25 35
e 25 36
e 25 37
e 26 28
e 26 29
e 26 30
e 26 33
e 26 34
e 26 35
e 27 29
e 27 30
e 27 32
e 27 35
e 27 36
e 27 38
e 28 29
e 28 30
e 28 31
e 28 35
e 28 37
e 29 30
e 29 34
e 29 35
e 29 36
e 30 31
e 30 34
e 30 36
e 30 37
e 31 32
e 31 34
e 31 35
e 31 37
e 32 35
e 32 36
e 32 37
e 32 38
e 33 34
e 33 35
e 34 37
e 34 38
e 35 37